p cnf 11 27
11 10 7 0
-11 -10 -7 0
11 8 -1 0
-11 6 -4 0
11 -5 -2 0
-11 5 2 0
11 -3 -2 0
11 2 -1 0
-10 8 1 0
10 7 4 0
-10 6 -3 0
10 -5 4 0
-10 5 2 0
-10 -5 2 0
9 8 -6 0
-9 8 -3 0
9 7 3 0
9 -4 -3 0
8 -7 5 0
8 -7 -5 0
-8 5 3 0
8 3 2 0
-8 -3 1 0
-7 6 1 0
7 5 -4 0
6 5 -4 0
-4 -3 1 0
